18781 13219 1730
14420 17580 1993
17934 14066 1934
15730 18270 1854
13998 19002 1717
18439 13561 1843
14290 17710 1983
18320 14680 1793
15141 14859 2071
19019 10981 1665
16356 16644 2022
14949 17051 2027
15816 15184 2070
17673 14327 1965
14193 18807 1815
14120 16880 2040
18069 12931 1910
13835 16165 2071
17324 15676 1994
18826 13174 1687
13941 17059 2030
16849 17151 1880
12864 19136 1589
14474 18526 1877
18960 12040 1624
14154 15846 2072
14775 18225 1927
17899 15101 1929
14953 18047 1956
17019 15981 2017
12865 19135 1706
17142 13858 2016
15971 16029 2069
19045 10955 1569
11790 19210 1622
16900 15100 2031
16175 16825 2020
16690 17310 1915
11814 19186 1691
16031 17969 1904
18839 12161 1747
16302 17698 1808
14843 16157 2068
17501 14499 1982
12896 19104 1732
17171 14829 2013
